c "902648.clq"
p edge 200 784
e 1 5
e 1 6
e 1 8
e 1 10
e 1 11
e 1 14
e 1 17
e 1 20
e 1 23
e 1 26
e 1 30
e 1 43
e 1 47
e 1 78
e 1 79
e 1 81
e 1 88
e 1 92
e 1 93
e 1 104
e 1 114
e 1 116
e 1 148
e 1 159
e 1 165
e 1 183
e 1 198
e 2 5
e 2 7
e 2 15
e 2 42
e 2 80
e 2 122
e 3 5
e 3 6
e 3 11
e 3 17
e 3 135
e 3 176
e 4 5
e 4 6
e 4 7
e 4 8
e 4 9
e 4 18
e 4 19
e 4 20
e 4 22
e 4 44
e 4 45
e 4 50
e 4 68
e 4 112
e 4 167
e 4 174
e 4 187
e 4 195
e 5 6
e 5 7
e 5 8
e 5 9
e 5 10
e 5 15
e 5 19
e 5 20
e 5 24
e 5 34
e 5 35
e 5 41
e 5 43
e 5 45
e 5 46
e 5 52
e 5 55
e 5 60
e 5 67
e 5 70
e 5 74
e 5 82
e 5 85
e 5 97
e 5 101
e 5 107
e 5 110
e 5 124
e 5 134
e 5 141
e 5 147
e 5 160
e 5 161
e 5 179
e 5 186
e 6 7
e 6 8
e 6 9
e 6 10
e 6 16
e 6 21
e 6 25
e 6 28
e 6 30
e 6 31
e 6 40
e 6 46
e 6 47
e 6 53
e 6 60
e 6 65
e 6 70
e 6 77
e 6 87
e 6 90
e 6 91
e 6 108
e 6 109
e 6 111
e 6 117
e 6 124
e 6 137
e 6 161
e 6 162
e 6 174
e 6 177
e 6 187
e 7 9
e 7 10
e 7 11
e 7 12
e 7 13
e 7 15
e 7 16
e 7 19
e 7 21
e 7 22
e 7 23
e 7 24
e 7 29
e 7 40
e 7 41
e 7 44
e 7 49
e 7 56
e 7 59
e 7 75
e 7 76
e 7 86
e 7 95
e 7 105
e 7 114
e 7 115
e 7 124
e 7 125
e 7 127
e 7 129
e 7 146
e 7 147
e 7 154
e 7 160
e 7 161
e 7 172
e 7 178
e 7 180
e 7 196
e 7 199
e 8 12
e 8 13
e 8 14
e 8 15
e 8 24
e 8 25
e 8 28
e 8 35
e 8 36
e 8 51
e 8 57
e 8 58
e 8 76
e 8 101
e 8 142
e 8 145
e 8 151
e 8 166
e 8 183
e 9 12
e 9 13
e 9 14
e 9 18
e 9 22
e 9 23
e 9 26
e 9 29
e 9 31
e 9 33
e 9 34
e 9 35
e 9 41
e 9 42
e 9 43
e 9 52
e 9 59
e 9 63
e 9 65
e 9 66
e 9 68
e 9 71
e 9 74
e 9 76
e 9 85
e 9 92
e 9 93
e 9 99
e 9 101
e 9 109
e 9 113
e 9 119
e 9 123
e 9 124
e 9 132
e 9 134
e 9 174
e 9 200
e 10 11
e 10 12
e 10 14
e 10 20
e 10 22
e 10 27
e 10 32
e 10 40
e 10 66
e 10 73
e 10 95
e 10 100
e 10 113
e 10 123
e 10 135
e 10 140
e 11 26
e 11 36
e 11 42
e 11 49
e 11 52
e 11 53
e 11 68
e 11 79
e 11 84
e 11 86
e 11 87
e 11 111
e 11 143
e 11 171
e 12 13
e 12 16
e 12 17
e 12 24
e 12 39
e 12 52
e 12 62
e 12 71
e 12 83
e 12 91
e 12 92
e 12 105
e 12 114
e 12 129
e 12 143
e 12 154
e 12 155
e 12 164
e 12 188
e 13 17
e 13 26
e 13 31
e 13 33
e 13 59
e 13 63
e 13 78
e 13 88
e 13 97
e 13 108
e 13 139
e 13 173
e 13 183
e 14 16
e 14 21
e 14 126
e 14 166
e 15 18
e 15 25
e 15 28
e 15 29
e 15 31
e 15 38
e 15 44
e 15 55
e 16 21
e 16 25
e 16 27
e 16 47
e 16 57
e 16 71
e 16 77
e 16 98
e 16 142
e 17 18
e 17 19
e 17 23
e 17 28
e 17 30
e 17 32
e 17 48
e 17 57
e 17 67
e 17 83
e 17 92
e 17 99
e 17 123
e 17 125
e 17 144
e 17 148
e 17 158
e 18 36
e 18 48
e 18 57
e 18 64
e 18 94
e 18 110
e 19 37
e 19 56
e 19 61
e 19 94
e 19 129
e 19 130
e 20 30
e 20 45
e 20 50
e 20 51
e 20 61
e 20 67
e 20 75
e 20 94
e 20 112
e 20 132
e 20 167
e 20 198
e 21 27
e 21 37
e 21 58
e 21 62
e 21 82
e 21 106
e 21 116
e 21 120
e 21 156
e 21 163
e 21 180
e 21 184
e 21 185
e 22 27
e 22 29
e 22 32
e 22 53
e 22 86
e 22 120
e 22 134
e 23 39
e 23 79
e 23 84
e 23 87
e 23 101
e 23 132
e 23 151
e 23 152
e 23 155
e 23 170
e 23 176
e 23 186
e 23 200
e 24 38
e 24 47
e 24 48
e 24 63
e 24 89
e 24 139
e 25 32
e 25 38
e 25 64
e 25 66
e 25 83
e 25 88
e 25 93
e 25 107
e 25 109
e 25 140
e 25 156
e 26 151
e 26 169
e 27 34
e 27 44
e 27 63
e 27 163
e 27 186
e 27 200
e 28 76
e 28 111
e 28 127
e 28 131
e 28 192
e 29 33
e 29 34
e 29 37
e 29 58
e 29 69
e 29 90
e 29 97
e 29 105
e 29 121
e 29 128
e 29 130
e 29 163
e 29 165
e 29 173
e 29 188
e 30 36
e 30 39
e 30 54
e 30 58
e 30 125
e 30 156
e 30 167
e 31 33
e 31 37
e 31 48
e 31 49
e 31 56
e 31 65
e 31 71
e 31 75
e 31 91
e 31 149
e 31 169
e 31 179
e 32 39
e 32 50
e 32 69
e 32 70
e 32 90
e 32 95
e 32 100
e 32 115
e 32 163
e 32 176
e 32 182
e 32 193
e 33 35
e 33 46
e 33 59
e 33 61
e 33 82
e 33 107
e 33 117
e 33 133
e 33 137
e 33 160
e 34 135
e 34 184
e 34 185
e 35 40
e 35 54
e 35 65
e 35 78
e 35 90
e 35 103
e 35 119
e 35 147
e 35 168
e 35 181
e 35 189
e 36 38
e 36 42
e 36 45
e 36 54
e 36 85
e 36 95
e 36 97
e 36 128
e 37 73
e 38 43
e 38 51
e 38 60
e 38 84
e 38 91
e 38 94
e 38 103
e 38 122
e 38 161
e 38 172
e 39 41
e 39 73
e 39 89
e 39 106
e 39 130
e 39 137
e 39 144
e 39 147
e 39 155
e 40 46
e 40 105
e 40 122
e 40 144
e 40 159
e 40 162
e 40 180
e 41 55
e 41 77
e 41 86
e 41 98
e 41 100
e 41 136
e 42 51
e 42 54
e 42 64
e 42 81
e 42 87
e 42 99
e 42 121
e 42 134
e 42 138
e 42 164
e 42 168
e 42 175
e 42 177
e 42 186
e 42 189
e 43 49
e 43 53
e 43 61
e 43 67
e 43 84
e 43 96
e 43 139
e 43 191
e 43 194
e 44 150
e 45 50
e 45 78
e 45 164
e 45 189
e 46 70
e 46 81
e 46 116
e 48 69
e 48 96
e 48 196
e 49 62
e 49 69
e 49 98
e 49 140
e 49 181
e 50 72
e 50 126
e 50 188
e 51 72
e 51 77
e 51 102
e 51 103
e 51 106
e 51 115
e 51 138
e 51 196
e 52 79
e 52 89
e 52 149
e 53 72
e 53 127
e 53 139
e 53 159
e 53 173
e 54 55
e 54 56
e 54 66
e 54 68
e 54 93
e 54 96
e 54 112
e 54 142
e 54 197
e 55 60
e 56 73
e 57 88
e 57 193
e 58 118
e 58 194
e 58 196
e 59 62
e 59 64
e 59 99
e 59 113
e 59 191
e 60 146
e 61 104
e 61 127
e 61 154
e 61 166
e 62 114
e 62 140
e 62 177
e 62 187
e 62 192
e 63 74
e 64 108
e 64 117
e 64 141
e 66 116
e 66 157
e 67 72
e 67 143
e 67 167
e 67 169
e 67 183
e 67 192
e 68 200
e 69 74
e 69 104
e 69 133
e 69 191
e 70 102
e 70 187
e 71 75
e 71 81
e 71 135
e 72 129
e 72 158
e 72 160
e 72 175
e 72 190
e 73 143
e 73 158
e 74 109
e 74 115
e 74 128
e 74 171
e 74 199
e 75 80
e 75 89
e 75 102
e 75 118
e 75 144
e 75 182
e 76 83
e 77 80
e 77 145
e 77 197
e 78 80
e 78 82
e 78 85
e 78 103
e 78 152
e 79 102
e 79 197
e 80 133
e 81 120
e 82 100
e 82 104
e 82 190
e 83 98
e 83 133
e 83 152
e 83 153
e 83 165
e 84 130
e 85 119
e 86 175
e 86 185
e 86 199
e 87 117
e 87 126
e 87 149
e 87 189
e 88 96
e 89 146
e 90 153
e 91 122
e 91 152
e 91 170
e 92 107
e 92 118
e 92 141
e 94 111
e 94 136
e 94 150
e 94 177
e 94 178
e 94 181
e 94 199
e 95 132
e 95 153
e 95 166
e 95 182
e 95 195
e 96 121
e 96 164
e 96 178
e 97 108
e 97 198
e 98 110
e 98 154
e 99 106
e 100 145
e 101 118
e 101 126
e 102 192
e 103 125
e 104 145
e 104 150
e 104 179
e 104 184
e 105 128
e 105 148
e 105 175
e 106 113
e 106 131
e 106 138
e 106 142
e 107 112
e 107 169
e 109 110
e 109 150
e 110 168
e 110 172
e 112 121
e 112 137
e 112 149
e 112 185
e 113 148
e 114 131
e 114 136
e 114 170
e 114 172
e 114 193
e 114 197
e 116 194
e 117 138
e 117 178
e 118 119
e 118 120
e 118 123
e 118 162
e 119 155
e 119 162
e 120 191
e 121 131
e 126 141
e 126 157
e 126 165
e 126 171
e 126 174
e 127 190
e 128 136
e 129 182
e 130 151
e 134 153
e 136 156
e 137 195
e 138 198
e 141 168
e 144 146
e 144 176
e 146 157
e 148 157
e 148 159
e 148 181
e 149 180
e 150 173
e 150 184
e 153 158
e 155 193
e 156 171
e 165 170
e 165 190
e 165 194
e 166 195
e 171 188
e 176 179
